; benchmark generated from python API
(set-info :status unknown)
(declare-fun C () Real)
(declare-fun S_3 () Real)
(declare-fun S_4 () Real)
(declare-fun S_0 () Real)
(declare-fun S_2 () Real)
(declare-fun S_1 () Real)
(declare-fun L_0 () Real)
(declare-fun A_0 () Real)
(declare-fun L_3 () Real)
(declare-fun A_4 () Real)
(declare-fun A_3 () Real)
(declare-fun B () Real)
(declare-fun L_2 () Real)
(declare-fun A_2 () Real)
(declare-fun A_1 () Real)
(declare-fun L_1 () Real)
(assert
 (let (($x34 (>= L_0 0.0)))
 (let (($x788 (>= C 5.0)))
 (let (($x2541 (<= (+ (* (- 1.0) S_4) A_3 (* (- 1.0) L_3)) 0.0)))
 (let ((?x227 (* (- 1.0) B)))
 (let ((?x1053 (* (- 1.0) S_0)))
 (let ((?x989 (* (- 3.0) C)))
 (let ((?x253 (* (- 1.0) L_2)))
 (let (($x1735 (<= (+ A_2 ?x253 (* (- 1.0) A_0) L_0 (* (- 2.0) C) ?x227) 0.0)))
 (let (($x51 (= L_1 L_0)))
 (let (($x653 (not $x51)))
 (let (($x61 (= L_2 L_1)))
 (let (($x8448 (or $x61 $x653 (<= (+ (* (- 1.0) A_2) L_2 (* (- 1.0) L_0) A_1 C) 0.0))))
 (let (($x8414 (or $x61 (<= (+ (* (- 1.0) A_2) L_2 S_4 (* (- 2.0) C) B) 0.0))))
 (let (($x71 (= L_3 L_2)))
 (let (($x1201 (not $x71)))
 (let (($x2452 (or $x61 (<= (+ (* (- 1.0) A_2) L_2 (* 2.0 C) S_0 B) 0.0))))
 (let (($x468 (<= 0.0 (+ L_2 (* (- 1.0) L_1) A_1 (* (- 1.0) A_3) (* 2.0 C)))))
 (let (($x8418 (or $x71 (<= (+ (* (- 1.0) A_3) (* 3.0 C) S_0 L_3 B) 0.0))))
 (let (($x5370 (not (<= 0.0 (+ ?x253 L_1)))))
 (let (($x8654 (or $x71 (<= (+ A_2 (* (- 1.0) L_1) (* (- 1.0) A_3) C L_3) 0.0) $x5370)))
 (let (($x1368 (<= (+ A_3 (* (- 2.0) C) (* (- 1.0) S_2) (* (- 1.0) L_3) ?x227) 0.0)))
 (let (($x1409 (<= (+ (* (- 1.0) A_0) L_0 A_3 ?x989 (* (- 1.0) L_3) ?x227) 0.0)))
 (let ((?x884 (* 2.0 C)))
 (let ((?x368 (* (- 1.0) A_3)))
 (let ((?x236 (* (- 1.0) L_1)))
 (let (($x5418 (<= 0.0 (+ ?x236 A_1 ?x368 ?x884 L_3 ?x227))))
 (let (($x8430 (or $x51 (<= (+ L_1 (* (- 1.0) A_1) (* (- 1.0) C) S_2 B) 0.0))))
 (let (($x1080 (<= (+ (* (- 1.0) A_0) L_0 ?x236 A_1 (* (- 1.0) C) ?x227) 0.0)))
 (let (($x1387 (<= (+ (* (- 1.0) S_3) A_3 (* (- 1.0) C) (* (- 1.0) L_3) ?x227) 0.0)))
 (let (($x8692 (or $x71 $x653 (<= (+ (* (- 1.0) L_0) A_1 ?x368 ?x884 L_3) 0.0))))
 (let (($x8708 (or $x51 (<= (+ S_3 L_1 (* (- 1.0) A_1) (* (- 2.0) C) B) 0.0))))
 (let (($x108 (>= S_1 S_0)))
 (let (($x111 (>= S_2 S_1)))
 (let (($x114 (>= S_3 S_2)))
 (let (($x120 (>= A_2 A_1)))
 (let (($x121 (>= A_3 A_2)))
 (let (($x122 (>= A_4 A_3)))
 (and (<= (+ A_2 ?x253) S_4) (<= (+ A_0 (* (- 1.0) L_0)) S_3) (not (<= (+ A_1 ?x236) S_3)) $x122 $x121 $x120 $x114 $x111 $x108 (or $x51 (not (<= 0.0 (+ L_0 ?x236)))) (<= (+ ?x236 A_1 (* (- 1.0) S_2) ?x227) 0.0) (<= (+ ?x236 A_1 (* (- 1.0) C) (* (- 1.0) S_1) ?x227) 0.0) $x8708 (or $x51 (<= (+ L_1 (* (- 1.0) A_1) S_1 B) 0.0)) (or $x51 (<= (+ L_1 (* (- 1.0) A_1) C S_0 B) 0.0)) (or $x71 (<= (+ S_4 ?x368 (* (- 1.0) C) L_3 B) 0.0)) (or $x71 (<= (+ ?x368 ?x884 S_1 L_3 B) 0.0)) (<= (+ (* (- 1.0) S_4) A_3 (* (- 1.0) L_3) ?x227) 0.0) (or $x71 (<= (+ S_3 ?x368 L_3 B) 0.0)) (or $x71 (not (<= 0.0 (+ L_2 (* (- 1.0) L_3))))) (or $x61 $x5370) (<= (+ A_3 ?x989 (* (- 1.0) S_1) (* (- 1.0) L_3) ?x227) 0.0) $x8692 (or $x51 $x71 (= (+ ?x236 A_1 ?x368 ?x884 L_3) 0.0)) (<= (+ A_2 ?x253 (* (- 1.0) S_3) ?x227) 0.0) $x1387 (or $x61 (<= (+ (* (- 1.0) A_2) L_2 S_2 B) 0.0)) (or $x51 $x61 (= (+ (* (- 1.0) A_2) L_2 ?x236 A_1 C) 0.0)) (or $x61 (<= (+ (* (- 1.0) A_2) L_2 C S_1 B) 0.0)) (or $x61 $x71 (= (+ A_2 ?x253 ?x368 C L_3) 0.0)) (<= (+ ?x236 A_1 (* (- 2.0) C) ?x1053 ?x227) 0.0) $x1080 (<= (+ (* (- 1.0) S_3) ?x236 A_1 C ?x227) 0.0) $x8430 (or $x51 (<= 0.0 (+ (* (- 1.0) A_2) A_1 C)) $x5370) (or $x51 (<= (+ S_4 L_1 (* (- 1.0) A_1) ?x989 B) 0.0)) (or (<= (+ (* (- 1.0) S_4) ?x236 A_1 ?x884 ?x227) 0.0) $x5418) (or $x2541 (not $x5418)) (<= (+ A_3 (* (- 4.0) C) ?x1053 (* (- 1.0) L_3) ?x227) 0.0) $x1409 $x1368 (or $x71 (<= (+ ?x368 C S_2 L_3 B) 0.0)) $x8654 $x8418 (or $x51 $x468 $x1201) $x2452 (or $x61 $x1201 (<= 0.0 (+ A_2 ?x368 C))) $x8414 $x8448 (<= (+ A_2 ?x253 (* (- 1.0) C) (* (- 1.0) S_2) ?x227) 0.0) (<= (+ A_2 ?x253 (* (- 2.0) C) (* (- 1.0) S_1) ?x227) 0.0) $x1735 (<= (+ A_2 ?x253 ?x989 ?x1053 ?x227) 0.0) (<= (+ (* (- 1.0) S_3) ?x884 S_0) 0.0) (<= (+ (* (- 1.0) S_3) C S_1) 0.0) (<= (+ (* (- 1.0) A_0) L_0 (* (- 2.0) C) S_2) 0.0) (<= (+ ?x989 S_2 ?x1053) 0.0) (<= (+ (* (- 1.0) A_0) S_3 L_0 ?x989) 0.0) (<= (+ S_3 (* (- 4.0) C) ?x1053) 0.0) (or $x2541 (<= (+ (* (- 1.0) S_4) C S_2) 0.0)) (<= (+ S_4 ?x368 L_3 (* (- 1.0) C)) 0.0) (or $x2541 (<= (+ (* (- 1.0) S_4) ?x884 S_1) 0.0)) (or $x2541 (<= (+ (* (- 1.0) S_4) (* 3.0 C) S_0) 0.0)) (<= (+ (* (- 2.0) C) S_2 (* (- 1.0) S_1)) 0.0) (<= (+ S_3 ?x989 (* (- 1.0) S_1)) 0.0) (<= (+ S_4 ?x989 (* (- 1.0) S_2)) 0.0) (<= (+ S_4 (* (- 1.0) A_0) L_0 (* (- 4.0) C)) 0.0) (<= (+ S_4 (* (- 5.0) C) ?x1053) 0.0) (<= (+ S_4 (* (- 4.0) C) (* (- 1.0) S_1)) 0.0) (<= (+ S_3 (* (- 2.0) C) (* (- 1.0) S_2)) 0.0) $x788 $x34 (<= (+ S_4 (* (- 1.0) A_4) L_3) 0.0) (<= (+ (* (- 1.0) A_0) L_0 S_0) 0.0) (<= (+ (* (- 1.0) A_0) L_0 (* (- 1.0) C) S_1) 0.0) (<= (+ (* (- 2.0) C) S_1 ?x1053) 0.0) (<= (+ C (* (- 1.0) S_2) S_0) 0.0) (<= (+ S_4 (* (- 1.0) S_3) (* (- 2.0) C)) 0.0))))))))))))))))))))))))))))))))))))))))
(check-sat)
